NAME: CMT5_4
TYPE: CVRP
COMMENT: 1291.29 - Cluster Nr.4
DIMENSION: 12
CAPACITY: 200
EDGE_WEIGHT_TYPE: EUC_2D
NODE_COORD_TYPE: TWOD_COORDS
NODE_COORD_SECTION: 
1 12 42
2 17 34
4 12 38
6 21 36
5 6 38
7 35 35
8 20 40
9 7 43
10 14 37
11 10 43
12 7 38
3 17 33
DEPOT_SECTION: 
7
-1
DEMAND_SECTION: 
10 11
6 19
7 0
5 16
11 9
2 3
1 21
3 41
9 27
4 5
12 28
8 12
EOF
